; SPDX-License-Identifier: MPL-2.0
; Copyright (c) 2026 The RIINA Authors.
; Auto-generated from 02_FORMAL/coq/domains/DigitalWallet.v (25 validations)
; Generated by scripts/generate-full-stack.py
;
; Translation Validation for DigitalWallet
; Layer 9: Verifies compiler backend preserves formal semantics.
; Each assertion checks source IR ≡ target code for a proven property.

(set-logic QF_LIA)
(set-option :produce-models true)

; IR node representation
(declare-sort IRNode 0)
(declare-sort TargetNode 0)

; tier_limit: source semantics (matches Coq)
(declare-fun source_tier_limit () Bool)
(declare-fun target_tier_limit () Bool)
(assert (= source_tier_limit target_tier_limit))

; tier_daily_withdrawal_limit: source semantics (matches Coq)
(declare-fun source_tier_daily_withdrawal_limit () Bool)
(declare-fun target_tier_daily_withdrawal_limit () Bool)
(assert (= source_tier_daily_withdrawal_limit target_tier_daily_withdrawal_limit))

; sum_credits: source semantics (matches Coq)
(declare-fun source_sum_credits () Bool)
(declare-fun target_sum_credits () Bool)
(assert (= source_sum_credits target_sum_credits))

; sum_debits: source semantics (matches Coq)
(declare-fun source_sum_debits () Bool)
(declare-fun target_sum_debits () Bool)
(assert (= source_sum_debits target_sum_debits))

; invalidated: source semantics (matches Coq)
(declare-fun source_invalidated () Bool)
(declare-fun target_invalidated () Bool)
(assert (= source_invalidated target_invalidated))

; virtual_accounts_total: source semantics (matches Coq)
(declare-fun source_virtual_accounts_total () Bool)
(declare-fun target_virtual_accounts_total () Bool)
(assert (= source_virtual_accounts_total target_virtual_accounts_total))

; session_expired: source semantics (matches Coq)
(declare-fun source_session_expired () Bool)
(declare-fun target_session_expired () Bool)
(assert (= source_session_expired target_session_expired))

; session_valid: source semantics (matches Coq)
(declare-fun source_session_valid () Bool)
(declare-fun target_session_valid () Bool)
(assert (= source_session_valid target_session_valid))

; otp_valid: source semantics (matches Coq)
(declare-fun source_otp_valid () Bool)
(declare-fun target_otp_valid () Bool)
(assert (= source_otp_valid target_otp_valid))

; fraud_score_high: source semantics (matches Coq)
(declare-fun source_fraud_score_high () Bool)
(declare-fun target_fraud_score_high () Bool)
(assert (= source_fraud_score_high target_fraud_score_high))

; velocity_exceeded: source semantics (matches Coq)
(declare-fun source_velocity_exceeded () Bool)
(declare-fun target_velocity_exceeded () Bool)
(assert (= source_velocity_exceeded target_velocity_exceeded))

; p2p_settlement_time: source semantics (matches Coq)
(declare-fun source_p2p_settlement_time () Bool)
(declare-fun target_p2p_settlement_time () Bool)
(assert (= source_p2p_settlement_time target_p2p_settlement_time))

; qr_payment_time: source semantics (matches Coq)
(declare-fun source_qr_payment_time () Bool)
(declare-fun target_qr_payment_time () Bool)
(assert (= source_qr_payment_time target_qr_payment_time))

; valid_merchant_settlement: source semantics (matches Coq)
(declare-fun source_valid_merchant_settlement () Bool)
(declare-fun target_valid_merchant_settlement () Bool)
(assert (= source_valid_merchant_settlement target_valid_merchant_settlement))

; bank_transfer_reconciled: source semantics (matches Coq)
(declare-fun source_bank_transfer_reconciled () Bool)
(declare-fun target_bank_transfer_reconciled () Bool)
(assert (= source_bank_transfer_reconciled target_bank_transfer_reconciled))

; agent_float_sufficient: source semantics (matches Coq)
(declare-fun source_agent_float_sufficient () Bool)
(declare-fun target_agent_float_sufficient () Bool)
(assert (= source_agent_float_sufficient target_agent_float_sufficient))

; withdrawal_within_limit: source semantics (matches Coq)
(declare-fun source_withdrawal_within_limit () Bool)
(declare-fun target_withdrawal_within_limit () Bool)
(assert (= source_withdrawal_within_limit target_withdrawal_within_limit))

; withdrawal_within_balance: source semantics (matches Coq)
(declare-fun source_withdrawal_within_balance () Bool)
(declare-fun target_withdrawal_within_balance () Bool)
(assert (= source_withdrawal_within_balance target_withdrawal_within_balance))

; agent_has_cash: source semantics (matches Coq)
(declare-fun source_agent_has_cash () Bool)
(declare-fun target_agent_has_cash () Bool)
(assert (= source_agent_has_cash target_agent_has_cash))

; has_two_factors: source semantics (matches Coq)
(declare-fun source_has_two_factors () Bool)
(declare-fun target_has_two_factors () Bool)
(assert (= source_has_two_factors target_has_two_factors))

; wallets_unique: source semantics (matches Coq)
(declare-fun source_wallets_unique () Bool)
(declare-fun target_wallets_unique () Bool)
(assert (= source_wallets_unique target_wallets_unique))

; valid_wallet: source semantics (matches Coq)
(declare-fun source_valid_wallet () Bool)
(declare-fun target_valid_wallet () Bool)
(assert (= source_valid_wallet target_valid_wallet))

; dormancy_threshold: source semantics (matches Coq)
(declare-fun source_dormancy_threshold () Bool)
(declare-fun target_dormancy_threshold () Bool)
(assert (= source_dormancy_threshold target_dormancy_threshold))

; should_be_dormant: source semantics (matches Coq)
(declare-fun source_should_be_dormant () Bool)
(declare-fun target_should_be_dormant () Bool)
(assert (= source_should_be_dormant target_should_be_dormant))

; can_withdraw: source semantics (matches Coq)
(declare-fun source_can_withdraw () Bool)
(declare-fun target_can_withdraw () Bool)
(assert (= source_can_withdraw target_can_withdraw))

; virtual_accounts_within_parent: source semantics (matches Coq)
(declare-fun source_virtual_accounts_within_parent () Bool)
(declare-fun target_virtual_accounts_within_parent () Bool)
(assert (= source_virtual_accounts_within_parent target_virtual_accounts_within_parent))

; p2p_instant: source semantics (matches Coq)
(declare-fun source_p2p_instant () Bool)
(declare-fun target_p2p_instant () Bool)
(assert (= source_p2p_instant target_p2p_instant))

; qr_payment_fast: source semantics (matches Coq)
(declare-fun source_qr_payment_fast () Bool)
(declare-fun target_qr_payment_fast () Bool)
(assert (= source_qr_payment_fast target_qr_payment_fast))

; refund_is_instant: source semantics (matches Coq)
(declare-fun source_refund_is_instant () Bool)
(declare-fun target_refund_is_instant () Bool)
(assert (= source_refund_is_instant target_refund_is_instant))

; chargeback_processed: source semantics (matches Coq)
(declare-fun source_chargeback_processed () Bool)
(declare-fun target_chargeback_processed () Bool)
(assert (= source_chargeback_processed target_chargeback_processed))

; crypto_rate_is_locked: source semantics (matches Coq)
(declare-fun source_crypto_rate_is_locked () Bool)
(declare-fun target_crypto_rate_is_locked () Bool)
(assert (= source_crypto_rate_is_locked target_crypto_rate_is_locked))

; stablecoin_instant: source semantics (matches Coq)
(declare-fun source_stablecoin_instant () Bool)
(declare-fun target_stablecoin_instant () Bool)
(assert (= source_stablecoin_instant target_stablecoin_instant))

; bank_ownership_verified_before_approval: source semantics (matches Coq)
(declare-fun source_bank_ownership_verified_before_approval () Bool)
(declare-fun target_bank_ownership_verified_before_approval () Bool)
(assert (= source_bank_ownership_verified_before_approval target_bank_ownership_verified_before_approval))

; cardless_atm_otp_validity_minutes: source semantics (matches Coq)
(declare-fun source_cardless_atm_otp_validity_minutes () Bool)
(declare-fun target_cardless_atm_otp_validity_minutes () Bool)
(assert (= source_cardless_atm_otp_validity_minutes target_cardless_atm_otp_validity_minutes))

; cardless_otp_valid: source semantics (matches Coq)
(declare-fun source_cardless_otp_valid () Bool)
(declare-fun target_cardless_otp_valid () Bool)
(assert (= source_cardless_otp_valid target_cardless_otp_valid))

; agent_withdrawal_approved_with_cash: source semantics (matches Coq)
(declare-fun source_agent_withdrawal_approved_with_cash () Bool)
(declare-fun target_agent_withdrawal_approved_with_cash () Bool)
(assert (= source_agent_withdrawal_approved_with_cash target_agent_withdrawal_approved_with_cash))

; sensitive_op_requires_2fa: source semantics (matches Coq)
(declare-fun source_sensitive_op_requires_2fa () Bool)
(declare-fun target_sensitive_op_requires_2fa () Bool)
(assert (= source_sensitive_op_requires_2fa target_sensitive_op_requires_2fa))

; velocity_triggers_review: source semantics (matches Coq)
(declare-fun source_velocity_triggers_review () Bool)
(declare-fun target_velocity_triggers_review () Bool)
(assert (= source_velocity_triggers_review target_velocity_triggers_review))

; fraud_score_blocks_transaction: source semantics (matches Coq)
(declare-fun source_fraud_score_blocks_transaction () Bool)
(declare-fun target_fraud_score_blocks_transaction () Bool)
(assert (= source_fraud_score_blocks_transaction target_fraud_score_blocks_transaction))

; device_biometric_bound: source semantics (matches Coq)
(declare-fun source_device_biometric_bound () Bool)
(declare-fun target_device_biometric_bound () Bool)
(assert (= source_device_biometric_bound target_device_biometric_bound))

; WALLET_001_01_account_uniqueness: translation preserves property (matches Coq: Theorem)
(declare-fun source_WALLET_001_01_account_uniqueness () Bool)
(declare-fun target_WALLET_001_01_account_uniqueness () Bool)
(assert (= source_WALLET_001_01_account_uniqueness target_WALLET_001_01_account_uniqueness))

; WALLET_001_02_balance_integrity: translation preserves property (matches Coq: Theorem)
(declare-fun source_WALLET_001_02_balance_integrity () Bool)
(declare-fun target_WALLET_001_02_balance_integrity () Bool)
(assert (= source_WALLET_001_02_balance_integrity target_WALLET_001_02_balance_integrity))

; WALLET_001_03_tier_limit_enforcement: translation preserves property (matches Coq: Theorem)
(declare-fun source_WALLET_001_03_tier_limit_enforcement () Bool)
(declare-fun target_WALLET_001_03_tier_limit_enforcement () Bool)
(assert (= source_WALLET_001_03_tier_limit_enforcement target_WALLET_001_03_tier_limit_enforcement))

; WALLET_001_04_virtual_account_segregation: translation preserves property (matches Coq: Theorem)
(declare-fun source_WALLET_001_04_virtual_account_segregation () Bool)
(declare-fun target_WALLET_001_04_virtual_account_segregation () Bool)
(assert (= source_WALLET_001_04_virtual_account_segregation target_WALLET_001_04_virtual_account_segregation))

; WALLET_001_05_dormancy_detection: translation preserves property (matches Coq: Theorem)
(declare-fun source_WALLET_001_05_dormancy_detection () Bool)
(declare-fun target_WALLET_001_05_dormancy_detection () Bool)
(assert (= source_WALLET_001_05_dormancy_detection target_WALLET_001_05_dormancy_detection))

; WALLET_001_06_p2p_instant_settlement: translation preserves property (matches Coq: Theorem)
(declare-fun source_WALLET_001_06_p2p_instant_settlement () Bool)
(declare-fun target_WALLET_001_06_p2p_instant_settlement () Bool)
(assert (= source_WALLET_001_06_p2p_instant_settlement target_WALLET_001_06_p2p_instant_settlement))

; WALLET_001_07_qr_payment_instant: translation preserves property (matches Coq: Theorem)
(declare-fun source_WALLET_001_07_qr_payment_instant () Bool)
(declare-fun target_WALLET_001_07_qr_payment_instant () Bool)
(assert (= source_WALLET_001_07_qr_payment_instant target_WALLET_001_07_qr_payment_instant))

; WALLET_001_08_dynamic_qr_single_use: translation preserves property (matches Coq: Theorem)
(declare-fun source_WALLET_001_08_dynamic_qr_single_use () Bool)
(declare-fun target_WALLET_001_08_dynamic_qr_single_use () Bool)
(assert (= source_WALLET_001_08_dynamic_qr_single_use target_WALLET_001_08_dynamic_qr_single_use))

; WALLET_001_09_merchant_settlement: translation preserves property (matches Coq: Theorem)
(declare-fun source_WALLET_001_09_merchant_settlement () Bool)
(declare-fun target_WALLET_001_09_merchant_settlement () Bool)
(assert (= source_WALLET_001_09_merchant_settlement target_WALLET_001_09_merchant_settlement))

; WALLET_001_10_refund_instant: translation preserves property (matches Coq: Theorem)
(declare-fun source_WALLET_001_10_refund_instant () Bool)
(declare-fun target_WALLET_001_10_refund_instant () Bool)
(assert (= source_WALLET_001_10_refund_instant target_WALLET_001_10_refund_instant))

; WALLET_001_11_bank_transfer_reconciliation: translation preserves property (matches Coq: Theorem)
(declare-fun source_WALLET_001_11_bank_transfer_reconciliation () Bool)
(declare-fun target_WALLET_001_11_bank_transfer_reconciliation () Bool)
(assert (= source_WALLET_001_11_bank_transfer_reconciliation target_WALLET_001_11_bank_transfer_reconciliation))

; WALLET_001_12_card_chargeback_handling: translation preserves property (matches Coq: Theorem)
(declare-fun source_WALLET_001_12_card_chargeback_handling () Bool)
(declare-fun target_WALLET_001_12_card_chargeback_handling () Bool)
(assert (= source_WALLET_001_12_card_chargeback_handling target_WALLET_001_12_card_chargeback_handling))

; WALLET_001_13_agent_float_sufficiency: translation preserves property (matches Coq: Theorem)
(declare-fun source_WALLET_001_13_agent_float_sufficiency () Bool)
(declare-fun target_WALLET_001_13_agent_float_sufficiency () Bool)
(assert (= source_WALLET_001_13_agent_float_sufficiency target_WALLET_001_13_agent_float_sufficiency))

; WALLET_001_14_crypto_rate_lock: translation preserves property (matches Coq: Theorem)
(declare-fun source_WALLET_001_14_crypto_rate_lock () Bool)
(declare-fun target_WALLET_001_14_crypto_rate_lock () Bool)
(assert (= source_WALLET_001_14_crypto_rate_lock target_WALLET_001_14_crypto_rate_lock))

; WALLET_001_15_stablecoin_instant_credit: translation preserves property (matches Coq: Theorem)
(declare-fun source_WALLET_001_15_stablecoin_instant_credit () Bool)
(declare-fun target_WALLET_001_15_stablecoin_instant_credit () Bool)
(assert (= source_WALLET_001_15_stablecoin_instant_credit target_WALLET_001_15_stablecoin_instant_credit))

; WALLET_001_16_withdrawal_limit_enforcement: translation preserves property (matches Coq: Theorem)
(declare-fun source_WALLET_001_16_withdrawal_limit_enforcement () Bool)
(declare-fun target_WALLET_001_16_withdrawal_limit_enforcement () Bool)
(assert (= source_WALLET_001_16_withdrawal_limit_enforcement target_WALLET_001_16_withdrawal_limit_enforcement))

; WALLET_001_17_bank_withdrawal_ownership: translation preserves property (matches Coq: Theorem)
(declare-fun source_WALLET_001_17_bank_withdrawal_ownership () Bool)
(declare-fun target_WALLET_001_17_bank_withdrawal_ownership () Bool)
(assert (= source_WALLET_001_17_bank_withdrawal_ownership target_WALLET_001_17_bank_withdrawal_ownership))

; WALLET_001_18_cardless_atm_otp_validity: translation preserves property (matches Coq: Theorem)
(declare-fun source_WALLET_001_18_cardless_atm_otp_validity () Bool)
(declare-fun target_WALLET_001_18_cardless_atm_otp_validity () Bool)
(assert (= source_WALLET_001_18_cardless_atm_otp_validity target_WALLET_001_18_cardless_atm_otp_validity))

; WALLET_001_19_agent_cash_availability: translation preserves property (matches Coq: Theorem)
(declare-fun source_WALLET_001_19_agent_cash_availability () Bool)
(declare-fun target_WALLET_001_19_agent_cash_availability () Bool)
(assert (= source_WALLET_001_19_agent_cash_availability target_WALLET_001_19_agent_cash_availability))

; WALLET_001_20_withdrawal_balance_check: translation preserves property (matches Coq: Theorem)
(declare-fun source_WALLET_001_20_withdrawal_balance_check () Bool)
(declare-fun target_WALLET_001_20_withdrawal_balance_check () Bool)
(assert (= source_WALLET_001_20_withdrawal_balance_check target_WALLET_001_20_withdrawal_balance_check))

; WALLET_001_21_multi_factor_required: translation preserves property (matches Coq: Theorem)
(declare-fun source_WALLET_001_21_multi_factor_required () Bool)
(declare-fun target_WALLET_001_21_multi_factor_required () Bool)
(assert (= source_WALLET_001_21_multi_factor_required target_WALLET_001_21_multi_factor_required))

; WALLET_001_22_session_expiry: translation preserves property (matches Coq: Theorem)
(declare-fun source_WALLET_001_22_session_expiry () Bool)
(declare-fun target_WALLET_001_22_session_expiry () Bool)
(assert (= source_WALLET_001_22_session_expiry target_WALLET_001_22_session_expiry))

; WALLET_001_23_velocity_check: translation preserves property (matches Coq: Theorem)
(declare-fun source_WALLET_001_23_velocity_check () Bool)
(declare-fun target_WALLET_001_23_velocity_check () Bool)
(assert (= source_WALLET_001_23_velocity_check target_WALLET_001_23_velocity_check))

; WALLET_001_24_fraud_score_blocking: translation preserves property (matches Coq: Theorem)
(declare-fun source_WALLET_001_24_fraud_score_blocking () Bool)
(declare-fun target_WALLET_001_24_fraud_score_blocking () Bool)
(assert (= source_WALLET_001_24_fraud_score_blocking target_WALLET_001_24_fraud_score_blocking))

; WALLET_001_25_device_binding: translation preserves property (matches Coq: Theorem)
(declare-fun source_WALLET_001_25_device_binding () Bool)
(declare-fun target_WALLET_001_25_device_binding () Bool)
(assert (= source_WALLET_001_25_device_binding target_WALLET_001_25_device_binding))

; Verify all translation validations are satisfiable
(check-sat)
(exit)
